9
2147483647 29 60 13 61 36 98 71 34 
29 2147483647 61 79 17 43 45 25 64 
60 61 2147483647 86 40 18 38 40 87 
13 79 86 2147483647 21 61 84 83 66 
61 17 40 21 2147483647 63 51 11 48 
36 43 18 61 63 2147483647 21 25 70 
98 45 38 84 51 21 2147483647 63 57 
71 25 40 83 11 25 63 2147483647 44 
34 64 87 66 48 70 57 44 2147483647 
